(set-info :smt-lib-version 2.6)
(set-logic QF_UFLRA)
(set-info :source |
MathSat group

|)
(set-info :category "random")
(set-info :status sat)
(declare-fun x0 () Real)
(declare-fun x1 () Real)
(declare-fun x2 () Real)
(declare-fun x3 () Real)
(declare-fun x4 () Real)
(declare-fun x5 () Real)
(declare-fun x6 () Real)
(declare-fun x7 () Real)
(declare-fun x8 () Real)
(declare-fun x9 () Real)
(declare-fun x10 () Real)
(declare-fun x11 () Real)
(declare-fun x12 () Real)
(declare-fun x13 () Real)
(declare-fun x14 () Real)
(declare-fun x15 () Real)
(declare-fun x16 () Real)
(declare-fun x17 () Real)
(declare-fun x18 () Real)
(declare-fun x19 () Real)
(declare-fun x20 () Real)
(declare-fun x21 () Real)
(declare-fun x22 () Real)
(declare-fun x23 () Real)
(declare-fun x24 () Real)
(declare-fun x25 () Real)
(declare-fun x26 () Real)
(declare-fun x27 () Real)
(declare-fun x28 () Real)
(declare-fun x29 () Real)
(declare-fun x30 () Real)
(declare-fun x31 () Real)
(declare-fun x32 () Real)
(declare-fun x33 () Real)
(declare-fun x34 () Real)
(declare-fun x35 () Real)
(declare-fun x36 () Real)
(declare-fun x37 () Real)
(declare-fun x38 () Real)
(declare-fun x39 () Real)
(declare-fun x40 () Real)
(declare-fun x41 () Real)
(declare-fun x42 () Real)
(declare-fun x43 () Real)
(declare-fun x44 () Real)
(declare-fun x45 () Real)
(declare-fun x46 () Real)
(declare-fun x47 () Real)
(declare-fun x48 () Real)
(declare-fun x49 () Real)
(declare-fun f0_1 (Real) Real)
(declare-fun f0_2 (Real Real) Real)
(declare-fun f0_3 (Real Real Real) Real)
(declare-fun f0_4 (Real Real Real Real) Real)
(declare-fun P0 () Bool)
(declare-fun P1 () Bool)
(declare-fun P2 () Bool)
(declare-fun P3 () Bool)
(declare-fun P4 () Bool)
(declare-fun P5 () Bool)
(declare-fun P6 () Bool)
(declare-fun P7 () Bool)
(declare-fun P8 () Bool)
(declare-fun P9 () Bool)
(declare-fun P10 () Bool)
(declare-fun P11 () Bool)
(declare-fun P12 () Bool)
(declare-fun P13 () Bool)
(declare-fun P14 () Bool)
(declare-fun P15 () Bool)
(declare-fun P16 () Bool)
(declare-fun P17 () Bool)
(declare-fun P18 () Bool)
(declare-fun P19 () Bool)
(declare-fun P20 () Bool)
(declare-fun P21 () Bool)
(declare-fun P22 () Bool)
(declare-fun P23 () Bool)
(declare-fun P24 () Bool)
(declare-fun P25 () Bool)
(declare-fun P26 () Bool)
(declare-fun P27 () Bool)
(declare-fun P28 () Bool)
(declare-fun P29 () Bool)
(declare-fun P30 () Bool)
(declare-fun P31 () Bool)
(declare-fun P32 () Bool)
(declare-fun P33 () Bool)
(declare-fun P34 () Bool)
(declare-fun P35 () Bool)
(declare-fun P36 () Bool)
(declare-fun P37 () Bool)
(declare-fun P38 () Bool)
(declare-fun P39 () Bool)
(declare-fun P40 () Bool)
(declare-fun P41 () Bool)
(declare-fun P42 () Bool)
(declare-fun P43 () Bool)
(declare-fun P44 () Bool)
(declare-fun P45 () Bool)
(declare-fun P46 () Bool)
(declare-fun P47 () Bool)
(declare-fun P48 () Bool)
(declare-fun P49 () Bool)
(assert (let ((?v_86 (* 2 x12)) (?v_61 (* 10 x38))) (let ((?v_88 (< (- (+ (* 18 x42) ?v_61) (* 8 x4)) 4)) (?v_36 (* 14 x44))) (let ((?v_215 (< (+ (- (* 23 x15) (* 14 x40)) ?v_36) 7)) (?v_171 (* 20 x16)) (?v_108 (<= (- (+ (* 4 x0) (* 24 x11)) (* 9 x13)) 19))) (let ((?v_252 (< (- (- (* 26 x31) ?v_171) (* 13 x20)) 17)) (?v_91 (< (+ (- (* 7 x15) (* 2 x40)) (* 2 x11)) 26)) (?v_10 (< (+ (- (* 5 x17) (* 15 x12)) (* 15 x23)) 9)) (?v_184 (f0_1 x35))) (let ((?v_228 (distinct x22 ?v_184)) (?v_127 (distinct (f0_1 x0) x5)) (?v_69 (f0_1 x42)) (?v_2 (f0_1 x45))) (let ((?v_129 (= ?v_69 ?v_2)) (?v_137 (distinct x49 x20)) (?v_39 (distinct (f0_2 x37 x10) x33)) (?v_226 (distinct x36 (f0_1 x13))) (?v_157 (distinct (f0_2 x6 x38) x46)) (?v_178 (= x47 x37)) (?v_52 (distinct (f0_1 x29) (f0_2 x10 x8))) (?v_24 (f0_2 x43 x36))) (let ((?v_120 (= ?v_24 (f0_2 x24 x15))) (?v_22 (= (f0_2 x35 x12) x47)) (?v_133 (= ?v_69 (f0_1 x21))) (?v_74 (= (f0_1 x49) x29)) (?v_87 (distinct x1 (f0_2 x23 x48))) (?v_13 (distinct x7 x49)) (?v_53 (= x41 x33)) (?v_100 (f0_1 x7))) (let ((?v_4 (distinct (f0_2 x49 x3) ?v_100)) (?v_55 (f0_1 x4))) (let ((?v_124 (distinct ?v_55 x28)) (?v_54 (f0_1 x27))) (let ((?v_152 (= ?v_54 ?v_55)) (?v_11 (f0_1 x10))) (let ((?v_23 (distinct ?v_11 (f0_2 x35 x20))) (?v_109 (f0_1 x20))) (let ((?v_139 (= (f0_2 x36 x19) ?v_109)) (?v_93 (= (f0_2 x6 x30) x3)) (?v_155 (f0_1 x22))) (let ((?v_8 (distinct ?v_155 (f0_2 x25 x24))) (?v_104 (distinct x8 x31)) (?v_5 (= (f0_1 x6) x18)) (?v_246 (= (f0_2 x39 x38) (f0_1 x14))) (?v_76 (= (f0_1 x16) (f0_2 x25 x45))) (?v_33 (distinct (f0_1 x9) x37)) (?v_28 (distinct ?v_184 x48)) (?v_196 (distinct (f0_2 x38 x44) (f0_1 x15))) (?v_73 (= ?v_11 ?v_2)) (?v_141 (distinct (f0_1 x12) x44)) (?v_197 (distinct ?v_54 (f0_2 x3 x43))) (?v_116 (distinct ?v_100 (f0_2 x47 x37))) (?v_95 (= (f0_2 x44 x4) x6)) (?v_132 (= x7 (f0_1 x19))) (?v_111 (= x1 x33)) (?v_71 (distinct (f0_2 x24 x26) (f0_2 x1 x44))) (?v_107 (= ?v_109 x23)) (?v_48 (distinct x17 x11)) (?v_59 (= x34 (f0_2 x3 x22))) (?v_163 (distinct x18 (f0_2 x30 x38))) (?v_214 (distinct ?v_24 (f0_2 x0 x38))) (?v_19 (= x34 (f0_2 x27 x17))) (?v_45 (distinct x29 x26)) (?v_154 (f0_1 x31))) (let ((?v_15 (= ?v_154 ?v_54)) (?v_66 (distinct (f0_2 x33 x37) (f0_2 x41 x11))) (?v_29 (= x12 ?v_2)) (?v_81 (distinct (f0_2 x34 x33) x24)) (?v_218 (distinct ?v_154 ?v_155)) (?v_62 (not P36)) (?v_140 (not P41)) (?v_136 (not P40)) (?v_46 (not P29)) (?v_130 (not ?v_4)) (?v_9 (not ?v_22)) (?v_70 (not P43)) (?v_195 (not P33)) (?v_89 (not P37)) (?v_200 (not ?v_10)) (?v_38 (not ?v_91)) (?v_17 (not ?v_124)) (?v_37 (not ?v_246)) (?v_94 (not P35)) (?v_25 (not ?v_5)) (?v_99 (not ?v_53)) (?v_34 (not ?v_8)) (?v_255 (not P27)) (?v_206 (not ?v_13))) (let ((?v_49 (not ?v_66)) (?v_18 (not P4)) (?v_20 (not P6)) (?v_32 (not ?v_29)) (?v_185 (not ?v_33)) (?v_183 (not P16)) (?v_148 (not ?v_39)) (?v_172 (not ?v_23)) (?v_92 (not ?v_28)) (?v_60 (not P7)) (?v_44 (not P38)) (?v_82 (not P3)) (?v_122 (not P26)) (?v_192 (not P48)) (?v_224 (not P39)) (?v_164 (not P45)) (?v_90 (not ?v_45)) (?v_176 (not P46)) (?v_121 (not ?v_48)) (?v_135 (not P13)) (?v_64 (not ?v_52)) (?v_138 (not ?v_152)) (?v_78 (not ?v_59)) (?v_169 (not ?v_108)) (?v_79 (not ?v_15)) (?v_98 (not ?v_132)) (?v_84 (not P49)) (?v_151 (not P32)) (?v_242 (not P22)) (?v_156 (not ?v_226)) (?v_234 (not P18)) (?v_203 (not ?v_74)) (?v_117 (not P15)) (?v_110 (not P9)) (?v_150 (not ?v_76)) (?v_249 (not ?v_157)) (?v_118 (not P11)) (?v_239 (not ?v_19)) (?v_220 (not ?v_81)) (?v_123 (not ?v_88)) (?v_210 (not P19)) (?v_101 (not ?v_196)) (?v_191 (not ?v_95)) (?v_162 (not P5)) (?v_248 (not P12)) (?v_143 (not P24)) (?v_145 (not ?v_107)) (?v_158 (not ?v_111)) (?v_201 (not P17)) (?v_213 (not ?v_163)) (?v_256 (not P31)) (?v_142 (not P10)) (?v_166 (not P47)) (?v_186 (not ?v_127)) (?v_198 (not ?v_116)) (?v_193 (not ?v_137)) (?v_245 (not ?v_133)) (?v_209 (not P28)) (?v_216 (not ?v_141)) (?v_165 (not P14)) (?v_180 (not P20)) (?v_159 (not ?v_93)) (?v_232 (not ?v_139)) (?v_174 (not ?v_87)) (?v_179 (not P44)) (?v_188 (not ?v_129)) (?v_240 (not ?v_73)) (?v_199 (not ?v_120)) (?v_187 (not P23)) (?v_189 (not P8)) (?v_207 (not ?v_178)) (?v_190 (not P1)) (?v_221 (not P34)) (?v_244 (not P25)) (?v_247 (not ?v_104)) (?v_227 (not ?v_214)) (?v_225 (not ?v_218)) (?v_258 (not P30)) (?v_241 (not P21)) (?v_262 (not P0)) (?v_238 (not ?v_215)) (?v_261 (not P2)) (?v_254 (not ?v_252))) (let ((?v_260 (or P42 ?v_179)) (?v_259 (not ?v_71)) (?v_16 (= (- (- 0 ?v_36) (* 22 x11)) 17)) (?v_40 (< (- (- (* 11 x41) 0) (* 20 x11)) 4))) (let ((?v_3 (not ?v_40)) (?v_102 (< (+ (* 26 x1) (* 16 x3) (* 21 x20)) 9))) (let ((?v_30 (not ?v_102)) (?v_160 (not ?v_16)) (?v_128 (= (+ (- 0 (* 21 x48)) x7) 8))) (let ((?v_147 (not ?v_128)) (?v_175 (<= (+ (- 0 (* 10 x15)) (* 8 x30)) 27))) (let ((?v_253 (not ?v_175)) (?v_43 (< (+ (* (- 10) x41) (* 20 x15) (* 5 x20)) 19))) (let ((?v_12 (not ?v_43)) (?v_51 (< (+ (* (- 20) x23) (* 25 x44) ?v_171) 9)) (?v_131 (= (+ (- (* (- 9) x40) (* 19 x17)) (* 22 x45)) (- 11)))) (let ((?v_1 (not ?v_131)) (?v_85 (< (- (- (* (- 1) x45) (* 16 x46)) (* 12 x18)) (- 27)))) (let ((?v_194 (not ?v_85)) (?v_26 (< (- (+ (* (- 23) x30) (* 24 x37)) (* 13 x8)) 10))) (let ((?v_50 (not ?v_26)) (?v_103 (= (- (- (* (- 16) x38) (* 2 x16)) (* 23 x36)) 16))) (let ((?v_119 (not ?v_103)) (?v_0 (< (- (+ (* (- 20) x46) (* 15 x7)) (* 12 x24)) 19)) (?v_56 (= (+ (* (- 13) x32) (* 17 x17) (* 15 x41)) 13)) (?v_41 (<= (+ (* (- 24) x34) x37 (* 27 x31)) 5))) (let ((?v_7 (not ?v_0)) (?v_202 (= (- (+ (* (- 27) x33) (* 7 x10)) (* 25 x46)) 18))) (let ((?v_6 (not ?v_202)) (?v_27 (< (+ (- (* (- 12) x18) (* 11 x32)) (* 14 x29)) 0))) (let ((?v_14 (not ?v_27)) (?v_83 (<= (- (+ (* (- 2) x6) (* 18 x40)) 0) (- 27))) (?v_112 (= (- (- (* (- 26) x40) (* 12 x15)) (* 4 x33)) (- 23)))) (let ((?v_72 (not ?v_112)) (?v_212 (<= (+ (* 8 x1) (* 6 x41) (* 22 x36)) (- 20)))) (let ((?v_80 (not ?v_212)) (?v_167 (< (- (* 2 x4) (* 21 x23)) (- 23)))) (let ((?v_114 (not ?v_167)) (?v_219 (< (- (- (* (- 11) x26) (* 7 x11)) (* 20 x25)) 11))) (let ((?v_35 (not ?v_219)) (?v_68 (= (+ x12 (* 17 x15) (* 3 x38)) (- 17))) (?v_21 (< (- (- (* (- 16) x3) (* 11 x7)) (* 22 x39)) 12)) (?v_223 (< (+ (- (* (- 25) x8) (* 22 x37)) (* 7 x22)) (- 25)))) (let ((?v_58 (not ?v_223)) (?v_63 (<= (- (- (* (- 22) x35) 0) (* 27 x5)) (- 25)))) (let ((?v_42 (not ?v_63)) (?v_125 (not ?v_21)) (?v_31 (<= (+ (- 0 (* 17 x46)) (* 10 x40)) (- 1)))) (let ((?v_222 (not ?v_31)) (?v_257 (distinct (- (- (* (- 11) x43) (* 3 x5)) (* 20 x7)) 9))) (let ((?v_47 (not ?v_257)) (?v_65 (<= (- (+ (* (- 24) x26) (* 3 x34)) (* 6 x23)) 20))) (let ((?v_57 (not ?v_65)) (?v_67 (< (+ (* 12 x37) (* 15 x30) (* 7 x41)) (- 20))) (?v_126 (< (+ (- (* (- 22) x40) ?v_61) (* 18 x43)) (- 21)))) (let ((?v_149 (not ?v_126)) (?v_229 (< (+ (* 26 x39) (* 19 x18) (* 27 x46)) (- 20))) (?v_177 (<= (- (- (* (- 11) x31) (* 14 x16)) (* 23 x18)) 2))) (let ((?v_235 (not ?v_177)) (?v_105 (< (+ (* 4 x21) (* 13 x37) (* 21 x17)) (- 17))) (?v_204 (not ?v_41)) (?v_146 (<= (- (+ (* 27 x0) ?v_86) (* 11 x17)) (- 9))) (?v_153 (< (+ (* (- 21) x5) (* 21 x42) x14) (- 18))) (?v_77 (not ?v_68)) (?v_75 (= (+ (* (- 24) x1) (* 20 x44) (* 27 x44)) (- 13)))) (let ((?v_96 (not ?v_75)) (?v_113 (<= (- (- 0 (* 20 x4)) (* 7 x44)) (- 25)))) (let ((?v_211 (not ?v_113)) (?v_115 (not ?v_83)) (?v_161 (not ?v_51)) (?v_251 (< (+ (- 0 (* 3 x2)) ?v_86) (- 16)))) (let ((?v_134 (not ?v_251)) (?v_168 (= (- (- (* (- 3) x15) (* 10 x19)) (* 12 x33)) 28))) (let ((?v_243 (not ?v_168)) (?v_97 (< (+ (* (- 3) x6) (* 26 x29) (* 3 x37)) 8))) (let ((?v_106 (not ?v_97)) (?v_173 (not ?v_67)) (?v_208 (<= (+ (- (* (- 12) x42) (* 8 x27)) (* 4 x8)) 18))) (let ((?v_144 (not ?v_208)) (?v_231 (= (+ (- (* 15 x47) (* 23 x10)) (* 8 x34)) (- 13))) (?v_181 (not ?v_153)) (?v_182 (not ?v_56)) (?v_233 (<= (+ (* (- 19) x24) (* 24 x1)) (- 23))) (?v_217 (<= (- (- (* (- 3) x5) (* 16 x45)) (* 11 x11)) 8))) (let ((?v_170 (not ?v_217)) (?v_205 (not ?v_105)) (?v_230 (not ?v_146)) (?v_237 (not ?v_229)) (?v_236 (not ?v_231)) (?v_250 (not ?v_233))) (and (and (and (and (and (and (and (and (and (and (and (and (and (and (and (and (and (and (and (and (and (and (and (and (and (and (and (and (and (and (and (and (and (and (and (and (and (and (and (and (and (and (and (and (and (and (and (and (and (and (and (and (and (and (and (and (and (and (and (and (and (and (and (and (and (and (and (and (and (and (and (and (and (and (and (and (and (and (and (and (and (and (and (and (and (and (and (and (and (and (and (and (and (and (and (and (and (and (and (and (and (and (and (and (and (and (and (and (and (and (and (and (and (and (and (and (and (and (and (and (and (and (and (and (and (and (and (and (and (and (and (and (and (and (and (and (and (and (and (and (and (and (and (and (and (and (and (and (and (and (and (and (and (and (and (and (and (and (and (and (and (and (and (and (and (and (and (and (and (and (and (and (and (and (and (and (and (and (and (and (and (and (and (and (and (and (and (and (and (and (and (and (and (and (and (and (and (and (and (and (and (and (and (and (and (and (and (and (and (and (and (and (and (and (and (and (and (and (and (and (and (and (and (and (and (and (and (and (and (and (and (and (and (and (and (and (and (and (and (and (and (and (and (and (and (and (and (and (and (and (and (and (and (and (and (and (and (and (and (and (and (and (and (and (and (and (and (and (and (and (and (and (and (and (and (and (and (and (and (and (and (and (and (and (and (and (and (and (and (and (and (and (and (and (and (and (and (and (and (and (and (and (and (and (and (and (and (and (and (and (and (and (and (and (and (and (and (and (and (and (and (and (and (and (and (and (and (and (and (and (and (and (and (and (and (and (and (and (and (and (and (and (and (and (and (and (and (and (and (and (and (and (and (and (and (and (and (and (and (and (and (and (and (and (and (and (and (and (and (and (and (and (and (and (and (and (and (and (and (and (and (and (and (and (and (and (and (and (and (and (and (and (and (and (and (and (and (and (and (and (and (and (and (and (and (and (and (and (and (and (and (and (and (and (and (and (and (and (and (and (and (and (and (and (and (and (and (and (and (and (and (and (and (and (and (and (and (and (and (and (and (and (and (and (and (and (and (and (and (and (and (and (and (and (and (and (and (and (and (and (and (and (and (and (and (and (and (and (and (and (and (and (and (and (and (and (and (and (and (and (and (and (and (and (and (and (and (and (and (and (and (and (and (and (and (and (and (and (and (and (and (and (and (and (and (and (and (and (and (and (and (and (and (and (and (and (and (and (and (and (and (and (and (and (and (and (and (and (and (and (and (and (and (and (and (and (and (and (and (and (and (and (and (and (and (and (and (and (and (and (and (and (and (and (and (and (and (and (and (and (and (and (and (and (and (and (and (and (and (and (and (and (and (and (and (and (and (and (and (and (and (and (and (and (and (and (and (and (and (and (and (and (and (and (and (and (and (and (and (or (or ?v_16 ?v_48) ?v_12) (or (or ?v_62 ?v_51) ?v_129)) (or (or ?v_140 ?v_1) ?v_136)) (or (or P1 ?v_5) ?v_194)) (or (or ?v_46 ?v_130) ?v_9)) (or (or ?v_70 ?v_50) ?v_195)) (or (or ?v_119 ?v_0) ?v_56)) (or (or ?v_71 ?v_41) ?v_89)) (or (or ?v_200 ?v_38) P24)) (or (or ?v_7 ?v_6) ?v_14)) (or (or ?v_1 ?v_73) ?v_17)) (or (or ?v_3 P4) P19)) (or (or ?v_3 ?v_4) ?v_83)) (or (or ?v_72 ?v_19) P34)) (or (or ?v_127 ?v_30) ?v_37)) (or (or ?v_94 ?v_25) ?v_8)) (or (or ?v_6 ?v_13) ?v_99)) (or (or ?v_80 P18) ?v_7)) (or (or ?v_34 ?v_114) ?v_45)) (or (or ?v_35 ?v_9) ?v_255)) (or (or ?v_5 ?v_10) ?v_68)) (or (or ?v_23 ?v_21) ?v_58)) (or (or ?v_42 ?v_12) P11)) (or (or ?v_206 P17) ?v_14)) (or (or ?v_15 P49) ?v_28)) (or (or P20 ?v_15) ?v_49)) (or (or ?v_18 ?v_160) P45)) (or (or ?v_13 ?v_20) ?v_17)) (or (or ?v_18 ?v_19) ?v_32)) (or (or ?v_185 ?v_183) ?v_148)) (or (or ?v_20 ?v_125) ?v_31)) (or (or P44 ?v_22) ?v_172)) (or (or ?v_214 ?v_95) P19)) (or (or ?v_120 ?v_25) ?v_26)) (or (or ?v_27 P17) P30)) (or (or ?v_92 ?v_29) P37)) (or (or ?v_0 ?v_15) P2)) (or (or ?v_30 ?v_5) ?v_60)) (or (or ?v_222 P17) ?v_44)) (or (or ?v_32 ?v_47) ?v_33)) (or (or ?v_82 ?v_34) ?v_52)) (or (or ?v_122 ?v_107) ?v_57)) (or (or ?v_0 ?v_35) ?v_215)) (or (or P3 P33) ?v_3)) (or (or ?v_37 ?v_192) ?v_38)) (or (or ?v_39 ?v_224) P38)) (or (or ?v_137 ?v_141) ?v_40)) (or (or ?v_81 P46) ?v_67)) (or (or ?v_12 P23) ?v_164)) (or (or P23 ?v_41) ?v_42)) (or (or ?v_43 ?v_44) ?v_149)) (or (or ?v_18 ?v_59) ?v_229)) (or (or P46 ?v_10) ?v_90)) (or (or P13 ?v_46) ?v_47)) (or (or ?v_176 P22) P7)) (or (or P41 ?v_39) ?v_235)) (or (or ?v_32 ?v_121) ?v_1)) (or (or ?v_49 P30) ?v_104)) (or (or ?v_135 ?v_74) ?v_147)) (or (or ?v_50 ?v_1) ?v_105)) (or (or ?v_51 ?v_5) ?v_64)) (or (or P42 ?v_45) ?v_53)) (or (or ?v_138 ?v_204) ?v_146)) (or (or ?v_56 ?v_57) ?v_58)) (or (or ?v_78 P13) ?v_42)) (or (or P30 (not ?v_197)) ?v_60)) (or (or ?v_57 P25) ?v_88)) (or (or ?v_47 P27) ?v_62)) (or (or P12 ?v_63) ?v_76)) (or (or P2 ?v_153) P30)) (or (or ?v_169 P8) ?v_64)) (or (or ?v_65 P49) ?v_66)) (or (or ?v_79 ?v_26) ?v_67)) (or (or ?v_77 ?v_98) ?v_32)) (or (or P17 ?v_84) ?v_32)) (or (or ?v_133 ?v_42) ?v_70)) (or (or ?v_151 ?v_71) ?v_14)) (or (or ?v_242 ?v_96) ?v_72)) (or (or ?v_156 ?v_211) ?v_73)) (or (or ?v_234 ?v_203) ?v_117)) (or (or ?v_110 ?v_75) ?v_150)) (or (or ?v_77 P45) P26)) (or (or ?v_111 ?v_23) ?v_249)) (or (or ?v_118 ?v_239) ?v_78)) (or (or ?v_75 ?v_45) ?v_79)) (or (or ?v_80 ?v_220) ?v_82)) (or (or ?v_115 P9) ?v_5)) (or (or ?v_87 ?v_3) ?v_161)) (or (or ?v_84 ?v_85) ?v_93)) (or (or ?v_134 ?v_87) ?v_48)) (or (or ?v_123 ?v_89) ?v_90)) (or (or ?v_19 ?v_12) P13)) (or (or ?v_210 ?v_243) P42)) (or (or ?v_101 ?v_35) ?v_30)) (or (or ?v_91 P43) P33)) (or (or P39 ?v_79) ?v_92)) (or (or ?v_65 ?v_52) ?v_50)) (or (or ?v_93 ?v_94) ?v_97)) (or (or ?v_191 ?v_96) ?v_46)) (or (or ?v_106 ?v_98) ?v_68)) (or (or P11 ?v_82) ?v_99)) (or (or ?v_116 ?v_101) ?v_102)) (or (or P9 ?v_68) ?v_75)) (or (or ?v_64 P26) ?v_162)) (or (or ?v_68 ?v_103) ?v_248)) (or (or ?v_3 ?v_53) ?v_143)) (or (or P40 ?v_104) ?v_105)) (or (or ?v_8 ?v_106) P3)) (or (or ?v_145 ?v_108) ?v_139)) (or (or ?v_110 P15) ?v_101)) (or (or ?v_43 ?v_67) ?v_158)) (or (or ?v_49 ?v_90) ?v_57)) (or (or ?v_201 ?v_108) ?v_112)) (or (or ?v_68 P36) ?v_89)) (or (or ?v_113 ?v_41) ?v_103)) (or (or ?v_19 ?v_114) ?v_85)) (or (or ?v_90 ?v_213) ?v_115)) (or (or ?v_116 ?v_117) ?v_256)) (or (or ?v_18 ?v_118) ?v_28)) (or (or ?v_178 ?v_142) ?v_119)) (or (or ?v_105 ?v_77) ?v_17)) (or (or ?v_120 ?v_115) P15)) (or (or ?v_121 ?v_122) ?v_44)) (or (or ?v_63 ?v_56) ?v_123)) (or (or ?v_124 P29) P38)) (or (or ?v_166 P5) ?v_125)) (or (or ?v_45 ?v_32) ?v_126)) (or (or P26 ?v_67) P12)) (or (or ?v_82 ?v_89) ?v_186)) (or (or ?v_128 ?v_129) P26)) (or (or ?v_121 ?v_130) P20)) (or (or ?v_103 ?v_49) P9)) (or (or ?v_72 ?v_44) ?v_75)) (or (or P5 ?v_131) ?v_132)) (or (or ?v_133 ?v_34) ?v_91)) (or (or ?v_132 ?v_173) ?v_134)) (or (or ?v_107 ?v_144) P18)) (or (or ?v_198 ?v_104) ?v_119)) (or (or P40 ?v_135) ?v_114)) (or (or ?v_175 ?v_136) ?v_43)) (or (or P1 ?v_193) ?v_138)) (or (or P1 ?v_139) ?v_245)) (or (or ?v_140 ?v_56) ?v_209)) (or (or ?v_216 ?v_67) ?v_124)) (or (or ?v_111 P32) ?v_231)) (or (or ?v_165 ?v_1) ?v_142)) (or (or ?v_20 ?v_104) ?v_143)) (or (or ?v_144 P44) ?v_180)) (or (or ?v_145 ?v_83) ?v_146)) (or (or P0 ?v_64) ?v_159)) (or (or ?v_147 ?v_148) ?v_125)) (or (or ?v_149 ?v_60) ?v_133)) (or (or ?v_134 ?v_150) ?v_121)) (or (or ?v_151 ?v_19) ?v_152)) (or (or P2 ?v_32) ?v_181)) (or (or P17 ?v_218) ?v_156)) (or (or ?v_157 ?v_22) ?v_232)) (or (or ?v_174 ?v_158) ?v_51)) (or (or ?v_126 ?v_83) ?v_159)) (or (or ?v_52 P31) ?v_160)) (or (or ?v_107 ?v_103) ?v_136)) (or (or P16 P22) P31)) (or (or ?v_102 P23) P24)) (or (or ?v_161 ?v_162) ?v_163)) (or (or ?v_14 ?v_31) ?v_68)) (or (or ?v_149 ?v_164) ?v_53)) (or (or P45 ?v_142) ?v_179)) (or (or ?v_165 P11) ?v_45)) (or (or ?v_139 ?v_144) ?v_101)) (or (or ?v_166 ?v_46) ?v_182)) (or (or ?v_60 ?v_167) ?v_5)) (or (or ?v_125 P45) P27)) (or (or P49 ?v_233) ?v_168)) (or (or ?v_120 ?v_170) P44)) (or (or ?v_169 ?v_82) ?v_142)) (or (or ?v_167 ?v_112) ?v_80)) (or (or P34 P15) ?v_115)) (or (or ?v_95 ?v_188) P42)) (or (or ?v_87 ?v_240) P21)) (or (or ?v_42 ?v_170) ?v_65)) (or (or ?v_23 ?v_15) ?v_107)) (or (or ?v_104 ?v_252) ?v_172)) (or (or ?v_115 P28) P22)) (or (or ?v_199 P22) ?v_101)) (or (or ?v_170 ?v_187) ?v_173)) (or (or ?v_65 P15) P29)) (or (or ?v_174 ?v_253) ?v_176)) (or (or ?v_113 P15) ?v_128)) (or (or ?v_177 P24) ?v_35)) (or (or ?v_91 ?v_93) ?v_189)) (or (or ?v_207 ?v_179) P25)) (or (or ?v_19 ?v_169) ?v_43)) (or (or ?v_44 ?v_137) ?v_22)) (or (or ?v_134 P37) ?v_14)) (or (or ?v_146 P49) P14)) (or (or ?v_180 ?v_70) ?v_190)) (or (or ?v_181 ?v_41) ?v_70)) (or (or ?v_145 ?v_130) ?v_80)) (or (or ?v_19 ?v_115) P11)) (or (or ?v_152 ?v_129) ?v_182)) (or (or ?v_21 ?v_149) ?v_183)) (or (or ?v_107 P23) (not ?v_228))) (or (or ?v_117 ?v_99) ?v_136)) (or (or ?v_160 ?v_185) ?v_128)) (or (or ?v_70 ?v_128) ?v_59)) (or (or ?v_153 ?v_186) ?v_187)) (or (or ?v_205 ?v_27) ?v_28)) (or (or ?v_175 ?v_186) ?v_52)) (or (or ?v_137 ?v_188) ?v_72)) (or (or ?v_189 P36) ?v_186)) (or (or ?v_27 ?v_147) P11)) (or (or ?v_29 P36) ?v_84)) (or (or ?v_66 P11) P30)) (or (or ?v_63 ?v_99) P43)) (or (or ?v_164 ?v_65) ?v_115)) (or (or ?v_134 ?v_183) ?v_140)) (or (or ?v_158 ?v_190) P38)) (or (or ?v_124 ?v_191) ?v_192)) (or (or ?v_157 ?v_73) ?v_193)) (or (or ?v_72 ?v_129) ?v_169)) (or (or ?v_66 ?v_46) ?v_150)) (or (or ?v_108 ?v_8) ?v_151)) (or (or ?v_70 ?v_0) ?v_194)) (or (or ?v_107 ?v_195) P3)) (or (or ?v_196 P9) P49)) (or (or ?v_163 P6) ?v_130)) (or (or ?v_173 ?v_191) ?v_161)) (or (or ?v_38 ?v_90) ?v_60)) (or (or ?v_103 ?v_197) ?v_198)) (or (or ?v_23 ?v_120) ?v_147)) (or (or ?v_110 ?v_76) ?v_199)) (or (or ?v_200 ?v_122) ?v_67)) (or (or P26 ?v_118) ?v_168)) (or (or ?v_201 ?v_0) ?v_202)) (or (or P23 ?v_173) ?v_203)) (or (or ?v_160 P5) P39)) (or (or ?v_87 P6) ?v_193)) (or (or ?v_178 ?v_221) ?v_181)) (or (or ?v_70 P5) ?v_121)) (or (or ?v_204 ?v_101) ?v_80)) (or (or ?v_167 ?v_31) ?v_205)) (or (or ?v_105 ?v_14) ?v_87)) (or (or ?v_151 ?v_206) ?v_92)) (or (or ?v_107 ?v_205) ?v_34)) (or (or ?v_178 P21) P8)) (or (or ?v_153 ?v_13) ?v_201)) (or (or ?v_153 ?v_92) ?v_207)) (or (or ?v_42 ?v_208) ?v_32)) (or (or ?v_41 ?v_77) ?v_209)) (or (or ?v_84 ?v_152) ?v_80)) (or (or ?v_244 ?v_161) ?v_210)) (or (or ?v_145 ?v_211) ?v_79)) (or (or ?v_7 ?v_209) P37)) (or (or ?v_207 ?v_18) P14)) (or (or P27 ?v_132) P42)) (or (or ?v_17 P42) ?v_78)) (or (or ?v_207 ?v_56) P28)) (or (or ?v_77 ?v_212) ?v_173)) (or (or ?v_102 P38) ?v_164)) (or (or ?v_193 ?v_247) ?v_66)) (or (or P43 ?v_199) ?v_158)) (or (or P6 ?v_206) ?v_62)) (or (or ?v_213 ?v_79) P28)) (or (or ?v_35 P45) P29)) (or (or P0 P11) ?v_227)) (or (or ?v_51 ?v_215) P26)) (or (or P11 ?v_8) ?v_216)) (or (or ?v_200 ?v_199) ?v_70)) (or (or ?v_85 ?v_66) ?v_187)) (or (or ?v_217 ?v_150) P24)) (or (or ?v_225 ?v_168) ?v_219)) (or (or ?v_77 ?v_220) ?v_221)) (or (or ?v_222 ?v_8) ?v_92)) (or (or ?v_139 ?v_223) ?v_198)) (or (or ?v_203 P32) ?v_156)) (or (or ?v_129 ?v_83) ?v_141)) (or (or ?v_196 P24) ?v_123)) (or (or ?v_207 ?v_167) ?v_196)) (or (or ?v_92 ?v_20) ?v_224)) (or (or ?v_129 ?v_225) ?v_74)) (or (or ?v_67 ?v_105) ?v_226)) (or (or ?v_53 ?v_108) P6)) (or (or ?v_135 ?v_77) ?v_88)) (or (or ?v_227 ?v_213) ?v_65)) (or (or ?v_160 ?v_159) ?v_230)) (or (or ?v_87 ?v_223) P13)) (or (or ?v_101 ?v_161) P20)) (or (or ?v_1 ?v_1) P5)) (or (or ?v_206 ?v_176) ?v_213)) (or (or P10 ?v_258) ?v_122)) (or (or P39 ?v_111) ?v_143)) (or (or ?v_174 ?v_127) P44)) (or (or ?v_6 ?v_3) P43)) (or (or ?v_72 ?v_228) P34)) (or (or ?v_222 ?v_74) ?v_95)) (or (or ?v_21 ?v_237) ?v_200)) (or (or P11 ?v_60) ?v_241)) (or (or ?v_21 ?v_90) ?v_1)) (or (or ?v_185 ?v_93) ?v_262)) (or (or ?v_103 ?v_138) ?v_65)) (or (or ?v_164 ?v_63) ?v_99)) (or (or ?v_225 ?v_199) ?v_157)) (or (or ?v_118 ?v_119) P7)) (or (or ?v_16 ?v_201) ?v_91)) (or (or ?v_201 P15) ?v_230)) (or (or ?v_56 ?v_147) ?v_67)) (or (or ?v_236 ?v_58) ?v_112)) (or (or ?v_89 ?v_12) ?v_126)) (or (or P40 ?v_126) ?v_51)) (or (or P24 ?v_218) ?v_134)) (or (or ?v_127 ?v_156) ?v_230)) (or (or ?v_212 ?v_37) ?v_31)) (or (or ?v_168 ?v_37) ?v_238)) (or (or ?v_83 ?v_142) ?v_210)) (or (or ?v_37 ?v_39) ?v_56)) (or (or ?v_75 ?v_101) ?v_232)) (or (or P19 ?v_233) ?v_148)) (or (or ?v_169 ?v_206) P16)) (or (or ?v_92 ?v_5) P32)) (or (or ?v_210 P49) ?v_95)) (or (or ?v_76 ?v_208) ?v_33)) (or (or P23 ?v_168) ?v_234)) (or (or ?v_79 ?v_74) ?v_63)) (or (or ?v_235 ?v_236) ?v_163)) (or (or ?v_194 ?v_237) ?v_66)) (or (or ?v_116 ?v_238) ?v_165)) (or (or ?v_32 P13) P23)) (or (or ?v_10 ?v_172) P36)) (or (or ?v_226 P38) ?v_168)) (or (or ?v_202 P28) ?v_162)) (or (or ?v_32 ?v_231) ?v_30)) (or (or ?v_72 P37) ?v_228)) (or (or ?v_239 ?v_140) ?v_169)) (or (or P12 ?v_35) ?v_240)) (or (or P35 ?v_33) ?v_142)) (or (or ?v_45 ?v_67) ?v_241)) (or (or ?v_129 ?v_74) ?v_1)) (or (or ?v_226 ?v_64) ?v_111)) (or (or ?v_59 ?v_180) ?v_135)) (or (or ?v_52 ?v_215) ?v_77)) (or (or P13 P36) ?v_12)) (or (or ?v_65 ?v_68) ?v_125)) (or (or P35 ?v_242) ?v_116)) (or (or ?v_203 ?v_182) ?v_15)) (or (or P20 ?v_59) ?v_126)) (or (or P19 ?v_67) ?v_237)) (or (or ?v_203 ?v_243) ?v_63)) (or (or ?v_59 P23) P7)) (or (or ?v_244 ?v_130) ?v_261)) (or (or ?v_207 ?v_234) ?v_51)) (or (or ?v_203 ?v_218) ?v_230)) (or (or ?v_149 ?v_232) ?v_96)) (or (or ?v_161 ?v_168) ?v_245)) (or (or ?v_17 ?v_50) P28)) (or (or ?v_194 ?v_138) ?v_191)) (or (or ?v_131 ?v_189) ?v_85)) (or (or ?v_9 P47) ?v_246)) (or (or ?v_118 P12) ?v_5)) (or (or P12 ?v_208) ?v_166)) (or (or ?v_143 ?v_25) ?v_73)) (or (or ?v_142 P29) ?v_9)) (or (or ?v_150 ?v_174) ?v_172)) (or (or ?v_242 P19) ?v_187)) (or (or ?v_33 P49) ?v_142)) (or (or P42 ?v_233) ?v_145)) (or (or ?v_35 ?v_190) P42)) (or (or ?v_10 ?v_219) ?v_247)) (or (or P3 ?v_66) P6)) (or (or ?v_97 ?v_250) ?v_88)) (or (or ?v_230 ?v_81) ?v_5)) (or (or ?v_134 ?v_96) ?v_248)) (or (or ?v_228 ?v_249) ?v_1)) (or (or ?v_150 ?v_126) ?v_4)) (or (or ?v_8 ?v_166) ?v_15)) (or (or ?v_41 ?v_0) ?v_167)) (or (or ?v_121 ?v_250) ?v_223)) (or (or ?v_42 ?v_157) ?v_123)) (or (or ?v_226 ?v_251) P36)) (or (or ?v_148 P44) ?v_35)) (or (or ?v_32 ?v_161) ?v_224)) (or (or ?v_13 ?v_143) P30)) (or (or P14 ?v_150) ?v_68)) (or (or ?v_241 ?v_132) P27)) (or (or ?v_99 ?v_79) ?v_28)) (or (or P15 ?v_135) ?v_167)) (or (or P13 ?v_137) ?v_220)) (or (or ?v_176 P19) ?v_70)) (or (or ?v_147 ?v_102) P27)) (or (or ?v_17 P49) P23)) (or (or ?v_126 ?v_231) ?v_230)) (or (or ?v_231 ?v_224) ?v_252)) (or (or P19 ?v_105) ?v_3)) (or (or ?v_19 ?v_119) ?v_122)) (or (or P27 ?v_173) ?v_124)) (or (or ?v_35 P35) ?v_205)) (or (or ?v_27 ?v_201) ?v_88)) (or (or ?v_245 ?v_43) ?v_6)) (or (or P43 ?v_243) P21)) (or (or ?v_85 ?v_21) ?v_94)) (or (or ?v_228 ?v_186) ?v_152)) (or (or ?v_250 ?v_73) P44)) (or (or ?v_102 ?v_178) ?v_133)) (or (or ?v_173 ?v_17) ?v_78)) (or (or ?v_252 ?v_33) ?v_135)) (or (or P20 ?v_6) ?v_87)) (or (or ?v_160 ?v_181) ?v_91)) (or (or ?v_129 ?v_32) ?v_233)) (or (or P7 ?v_176) P0)) (or (or ?v_221 ?v_41) P3)) (or (or ?v_139 ?v_232) ?v_212)) (or (or ?v_10 ?v_175) P38)) (or (or ?v_228 P30) ?v_151)) (or (or ?v_223 ?v_162) ?v_161)) (or (or ?v_87 ?v_160) ?v_253)) (or (or P13 ?v_88) ?v_115)) (or (or ?v_231 ?v_235) ?v_150)) (or (or ?v_22 ?v_66) P29)) (or (or ?v_10 ?v_115) ?v_173)) (or (or ?v_217 ?v_238) ?v_65)) (or (or ?v_57 ?v_204) ?v_77)) (or (or ?v_46 ?v_252) ?v_253)) (or (or ?v_31 P22) ?v_76)) (or (or ?v_45 P42) P39)) (or (or P37 ?v_7) ?v_219)) (or (or ?v_202 P40) ?v_60)) (or (or ?v_110 ?v_139) ?v_42)) (or (or ?v_165 ?v_97) ?v_105)) (or (or ?v_47 ?v_221) ?v_150)) (or (or ?v_244 P37) ?v_161)) (or (or ?v_26 ?v_29) ?v_254)) (or (or ?v_131 ?v_145) P39)) (or (or ?v_254 ?v_134) ?v_129)) (or (or P10 ?v_205) ?v_65)) (or (or ?v_50 ?v_239) ?v_229)) (or (or ?v_247 ?v_79) ?v_118)) (or (or ?v_254 ?v_213) ?v_27)) (or (or ?v_33 ?v_99) ?v_197)) (or (or P34 ?v_114) P5)) (or (or ?v_128 ?v_130) ?v_115)) (or (or ?v_195 ?v_29) ?v_244)) (or (or ?v_95 ?v_250) P34)) (or (or ?v_83 ?v_104) ?v_141)) (or (or ?v_141 ?v_21) ?v_239)) (or (or ?v_146 ?v_68) ?v_201)) (or ?v_260 ?v_10)) (or (or ?v_259 ?v_208) ?v_140)) (or (or ?v_8 ?v_97) ?v_226)) (or (or ?v_74 ?v_217) ?v_255)) (or (or P6 ?v_58) ?v_104)) (or (or ?v_189 P29) P35)) (or (or ?v_82 ?v_153) ?v_192)) (or (or P33 ?v_229) ?v_231)) (or (or P1 ?v_73) ?v_83)) (or (or P29 ?v_116) ?v_208)) (or (or ?v_1 P28) ?v_233)) (or (or ?v_87 ?v_214) ?v_250)) (or (or ?v_46 ?v_167) ?v_30)) (or (or ?v_250 P24) ?v_234)) (or (or ?v_46 P37) ?v_146)) (or (or ?v_139 ?v_226) ?v_145)) (or (or ?v_204 ?v_242) ?v_65)) (or (or ?v_37 ?v_230) ?v_121)) (or (or ?v_131 ?v_80) ?v_44)) (or (or ?v_19 ?v_165) ?v_56)) (or (or ?v_149 ?v_256) P37)) (or (or ?v_133 ?v_257) ?v_234)) (or (or ?v_58 ?v_165) ?v_31)) (or (or ?v_165 ?v_105) ?v_197)) (or (or ?v_206 ?v_29) ?v_179)) (or (or P29 ?v_137) ?v_147)) (or (or ?v_113 ?v_229) ?v_1)) (or (or ?v_133 ?v_92) ?v_238)) (or (or ?v_196 ?v_32) ?v_116)) (or (or ?v_91 P46) ?v_239)) (or (or P26 ?v_149) P14)) (or (or ?v_111 ?v_62) ?v_72)) (or (or P22 ?v_0) ?v_34)) (or (or ?v_174 ?v_15) ?v_212)) (or (or ?v_84 ?v_97) ?v_257)) (or (or ?v_248 ?v_47) ?v_56)) (or (or ?v_41 ?v_67) ?v_95)) (or (or ?v_4 P14) ?v_199)) (or (or P13 ?v_45) ?v_65)) (or (or ?v_173 ?v_113) P15)) (or (or P21 P22) P43)) (or (or ?v_57 ?v_252) ?v_139)) (or (or ?v_135 ?v_66) ?v_220)) (or (or ?v_63 (not P42)) ?v_64)) (or (or ?v_51 ?v_187) ?v_258)) (or (or ?v_73 ?v_129) ?v_75)) (or (or ?v_9 ?v_82) ?v_76)) (or (or ?v_201 ?v_76) P36)) (or (or ?v_259 ?v_191) ?v_212)) (or (or ?v_94 P16) ?v_106)) (or (or ?v_182 ?v_248) ?v_166)) (or (or ?v_39 ?v_103) ?v_223)) (or (or P47 ?v_200) ?v_92)) (or (or ?v_195 ?v_180) ?v_169)) (or (or ?v_189 ?v_103) ?v_120)) (or (or ?v_141 ?v_152) ?v_22)) (or ?v_260 ?v_114)) (or (or ?v_253 ?v_33) ?v_63)) (or (or ?v_83 ?v_245) ?v_145)) (or (or ?v_134 ?v_211) ?v_77)) (or (or P23 ?v_176) ?v_66)) (or (or ?v_22 ?v_204) P23)) (or (or ?v_209 ?v_12) ?v_128)) (or (or P39 P45) ?v_168)) (or (or ?v_178 P25) ?v_3)) (or (or ?v_185 ?v_34) ?v_25)) (or (or ?v_152 P18) ?v_97)) (or (or ?v_33 ?v_74) ?v_164)) (or (or P44 ?v_175) ?v_123)) (or (or ?v_192 ?v_0) ?v_102)) (or (or ?v_190 ?v_1) P19)) (or (or ?v_215 P40) ?v_153)) (or (or ?v_208 ?v_118) ?v_18)) (or (or ?v_84 ?v_213) ?v_51)) (or (or ?v_49 ?v_168) P36)) (or (or ?v_13 ?v_210) ?v_92)) (or (or ?v_259 ?v_239) ?v_151)) (or (or ?v_105 ?v_142) ?v_95)) (or (or ?v_129 ?v_213) ?v_15)) (or (or ?v_160 ?v_48) ?v_181)) (or (or ?v_41 ?v_209) ?v_27)) (or (or ?v_196 ?v_241) P45)) (or (or ?v_67 P23) ?v_103)) (or (or ?v_122 ?v_157) ?v_206)) (or (or ?v_142 ?v_259) ?v_244)) (or (or ?v_157 ?v_64) ?v_39)) (or (or ?v_133 ?v_90) ?v_50)) (or (or ?v_207 ?v_89) ?v_176)) (or (or ?v_130 ?v_252) ?v_17)) (or (or ?v_120 ?v_76) ?v_31)) (or (or P43 ?v_238) ?v_95)) (or (or ?v_142 ?v_225) ?v_101)) (or (or ?v_115 ?v_256) P43)) (or (or ?v_198 ?v_259) ?v_125)) (or (or ?v_146 ?v_150) P32)) (or (or P23 P12) ?v_203)) (or (or ?v_79 ?v_53) ?v_116)) (or (or ?v_87 ?v_105) ?v_77)) (or (or P46 ?v_8) ?v_118)) (or (or ?v_150 ?v_89) ?v_248)) (or (or ?v_180 ?v_10) P33)) (or (or ?v_84 ?v_210) ?v_129)) (or (or P39 ?v_125) ?v_112)) (or (or ?v_214 P16) ?v_67)) (or (or ?v_219 ?v_258) ?v_26)) (or (or ?v_71 ?v_142) ?v_150)) (or (or ?v_4 ?v_41) ?v_111)) (or (or ?v_41 ?v_92) ?v_206)) (or (or ?v_194 ?v_14) P12)) (or (or ?v_236 ?v_12) P42)) (or (or ?v_220 ?v_180) ?v_59)) (or (or ?v_174 ?v_75) ?v_133)) (or (or ?v_242 ?v_125) ?v_204)) (or (or ?v_229 ?v_163) ?v_238)) (or (or ?v_6 ?v_246) ?v_138)) (or (or ?v_253 ?v_137) ?v_113)) (or (or ?v_140 ?v_4) ?v_259)) (or (or ?v_249 ?v_45) ?v_168)) (or (or P39 ?v_89) ?v_30)) (or (or ?v_34 ?v_112) ?v_26)) (or (or ?v_16 ?v_170) ?v_233)) (or (or ?v_176 ?v_134) ?v_116)) (or (or P22 ?v_112) ?v_170)) (or (or ?v_9 ?v_108) ?v_40)) (or (or ?v_218 ?v_88) ?v_163)) (or (or ?v_257 P2) ?v_97)) (or (or ?v_178 ?v_256) ?v_113)) (or (or ?v_88 P30) P24)) (or (or ?v_147 ?v_70) P32)) (or (or ?v_27 ?v_239) ?v_56)) (or (or ?v_255 P43) ?v_118)) (or (or ?v_112 ?v_51) ?v_89)) (or (or ?v_241 ?v_172) ?v_192)) (or (or ?v_64 ?v_197) ?v_186)) (or (or ?v_136 ?v_251) P48)) (or (or ?v_165 P49) ?v_221)) (or (or ?v_101 ?v_9) ?v_254)) (or (or ?v_221 ?v_240) ?v_181)) (or (or ?v_166 ?v_37) P6)) (or (or ?v_4 ?v_248) P23)) (or (or ?v_248 ?v_261) ?v_15)) (or (or ?v_242 ?v_37) ?v_73)) (or (or ?v_198 ?v_228) ?v_19)) (or (or ?v_136 ?v_222) ?v_243)) (or (or ?v_90 P34) ?v_135)) (or (or ?v_124 ?v_163) ?v_183)) (or (or ?v_139 ?v_178) P25)) (or (or ?v_106 P32) ?v_262)) (or (or ?v_201 ?v_148) ?v_22)) (or (or ?v_14 ?v_225) ?v_16)) (or (or ?v_104 ?v_113) ?v_156)) (or (or ?v_157 P45) ?v_37)) (or (or ?v_261 ?v_229) ?v_249)) (or (or ?v_205 ?v_89) ?v_246)) (or (or ?v_15 ?v_101) P42)) (or (or P36 ?v_182) ?v_112)))))))))))))))))))))))))))))))))))))))))))))))))
(check-sat)
(exit)
